p edge 88
e 0 1
e 0 35
e 0 63
e 0 68
e 0 76
e 1 21
e 1 31
e 1 42
e 1 63
e 1 76
e 2 7
e 2 34
e 2 36
e 2 49
e 2 67
e 2 74
e 3 5
e 3 9
e 3 27
e 3 71
e 4 22
e 4 33
e 4 47
e 4 56
e 4 78
e 4 87
e 5 27
e 5 32
e 5 39
e 5 79
e 6 24
e 6 30
e 6 53
e 6 54
e 7 19
e 7 25
e 7 49
e 7 52
e 7 74
e 8 15
e 8 16
e 8 17
e 8 72
e 9 27
e 9 28
e 9 29
e 9 71
e 10 33
e 10 48
e 10 73
e 10 75
e 10 77
e 10 78
e 10 82
e 11 21
e 11 38
e 11 43
e 11 45
e 11 57
e 11 65
e 12 32
e 12 46
e 12 50
e 12 58
e 12 81
e 13 22
e 13 33
e 13 48
e 14 35
e 14 41
e 14 70
e 14 79
e 14 84
e 14 86
e 15 16
e 15 84
e 15 85
e 16 72
e 16 84
e 16 86
e 17 23
e 17 60
e 17 64
e 17 72
e 18 47
e 18 52
e 18 59
e 18 66
e 18 74
e 18 83
e 18 87
e 19 23
e 19 49
e 19 60
e 20 26
e 20 31
e 20 47
e 20 66
e 20 69
e 20 73
e 20 78
e 21 31
e 21 42
e 21 44
e 21 45
e 21 57
e 22 33
e 22 56
e 23 49
e 23 60
e 23 64
e 23 67
e 24 44
e 24 45
e 24 53
e 24 54
e 24 65
e 25 40
e 25 52
e 26 31
e 26 34
e 26 36
e 26 66
e 26 76
e 27 29
e 27 63
e 27 68
e 27 79
e 28 29
e 28 44
e 28 54
e 28 71
e 28 80
e 29 42
e 29 44
e 29 63
e 30 54
e 30 55
e 31 57
e 31 69
e 31 76
e 32 37
e 32 39
e 32 46
e 33 48
e 33 78
e 34 36
e 34 66
e 34 74
e 35 36
e 35 41
e 35 68
e 35 76
e 35 79
e 36 41
e 36 67
e 36 76
e 37 39
e 37 50
e 37 70
e 37 84
e 38 43
e 38 57
e 38 69
e 38 75
e 38 77
e 39 70
e 39 79
e 40 52
e 40 61
e 40 83
e 41 64
e 41 67
e 41 86
e 42 44
e 42 63
e 43 65
e 43 77
e 44 45
e 45 65
e 46 81
e 47 66
e 47 78
e 47 87
e 48 82
e 49 67
e 50 58
e 50 84
e 50 85
e 51 59
e 51 61
e 51 62
e 51 83
e 52 74
e 52 83
e 53 65
e 54 55
e 54 80
e 55 80
e 56 62
e 56 87
e 57 69
e 58 81
e 58 85
e 59 62
e 59 83
e 59 87
e 61 83
e 62 87
e 63 68
e 64 67
e 64 72
e 64 86
e 66 74
e 68 79
e 69 73
e 69 75
e 70 79
e 70 84
e 71 80
e 72 86
e 73 75
e 73 78
e 75 77
e 77 82
e 84 85
e 84 86
c k 15
